/*********************************************
 * OPL 12.9.0.0 Data
 * Author: marko
 * Creation Date: 16 de abr de 2021 at 16:40:44
 *********************************************/
H = 60;
W = 80;
qtdeNiveis = 3;
qtdeCategorias = 1;

Wmin = [30];
Wmax = [50];

Ir = [{1,2,3}];
h = [20,15,10];
w = [10, 5,20];
d = [ 4, 8,12];
v = [[50,80,60],
	 [10,70,30],
	 [20,90,40]];
	 
l = [1,1,1];
 